NAME : null
TYPE : TOUR
DIMMENSION : 0
SOLUTION : 27378.18636676033
TOUR_SECTION(7 - 18)
(18 - 7)
(7 - 16)
(16 - 19)
(19 - 8)
(8 - 17)
(17 - 0)
(0 - 3)
(3 - 5)
(5 - 12)
(12 - 13)
(13 - 10)
(10 - 6)
(6 - 11)
(11 - 2)
(2 - 1)
(1 - 9)
(9 - 14)
(14 - 4)
-1
EOF
